proyfinal/src/viki/013/experimentInOfficeAgust.take6.output/32bacf0d-1a7c-44cf-84f1-77b4d6d55ee6.als.out
Reading from standard input... Use '--help' for help.
============================[ Problem Statistics ]=============================
|                                                                             |
|  Number of variables:         87638                                         |
|  Number of clauses:          161767                                         |
|  Parse time:                   0.04 s                                       |
|                                                                             |
============================[ Search Statistics ]==============================
| Conflicts |          ORIGINAL         |          LEARNT          | Progress |
|           |    Vars  Clauses Literals |    Limit  Clauses Lit/Cl |          |
===============================================================================
|       100 |   61926   103604   258833 |    37988      100     47 | 29.339 % |
|       250 |   61926   103604   258833 |    41786      250     42 | 29.339 % |
|       475 |   61926   103604   258833 |    45965      475     44 | 29.339 % |
|       812 |   61925   103560   258743 |    50562      809     59 | 29.340 % |
|      1318 |   61925   103560   258743 |    55618     1315     64 | 29.340 % |
|      2077 |   61925   103560   258743 |    61180     2074     67 | 29.340 % |
|      3216 |   61902   103466   258521 |    67298     2831     69 | 29.366 % |
|      4924 |   47157    61235   154961 |    74028     3893     58 | 46.191 % |
|      7486 |   46841    60089   152236 |    81430     6446     47 | 46.552 % |
===============================================================================
restarts              : 44
conflicts             : 9854           (8064 /sec)
decisions             : 30000          (0.00 % random) (24550 /sec)
propagations          : 15353677       (12564456 /sec)
conflict literals     : 454727         (47.85 % deleted)
Memory used           : 27.80 MB
CPU time              : 1.22199 s

UNSATISFIABLE
